benchmarks/bfuzz0/7569102972498022499288731162148992877.smt2
(set-logic QF_FP)
(declare-const x0 (_ FloatingPoint 11 53))
(declare-const x1 (_ FloatingPoint 11 53))
(declare-const x2 (_ FloatingPoint 11 53))
(declare-const x3 (_ FloatingPoint 11 53))
(declare-const x4 (_ FloatingPoint 11 53))
(declare-const x5 (_ FloatingPoint 11 53))
(declare-const x6 (_ FloatingPoint 11 53))
(declare-const x7 (_ FloatingPoint 11 53))
(declare-const x8 (_ FloatingPoint 11 53))
(declare-const x9 (_ FloatingPoint 11 53))
(declare-const x10 (_ FloatingPoint 11 53))
(declare-const x11 (_ FloatingPoint 11 53))
(declare-const x12 (_ FloatingPoint 11 53))
(declare-const x13 (_ FloatingPoint 11 53))
(declare-const x14 (_ FloatingPoint 11 53))
(declare-const x15 (_ FloatingPoint 11 53))
(assert (fp.lt (fp.add RNE x6 x3) (fp.sub RNE x13 x12)))
(assert (fp.eq (fp.add RNE x1 x12) (fp.add RNE x11 x0)))
(assert (fp.leq (fp.add RNE x7 x5) (fp.add RNE x8 x12)))
(assert (fp.geq (fp.neg x12) (fp.sub RNE x3 x14)))
(assert (fp.leq (fp.neg x1) (fp.sub RNE x4 x7)))
(assert (fp.gt (fp.div RNE x14 x3) (fp.neg x1)))
(assert (fp.leq (fp.sub RNE x10 x0) (fp.add RNE x15 x11)))
(assert (fp.leq (fp.neg x6) (fp.add RNE x10 x12)))
(assert (fp.gt (fp.mul RNE x1 x1) (fp.div RNE x2 x15)))
(assert (fp.eq (fp.neg x6) (fp.mul RNE x9 x11)))
(assert (fp.leq (fp.div RNE x8 x3) (fp.add RNE x14 x12)))
(assert (fp.eq (fp.mul RNE x9 x4) (fp.neg x14)))
(assert (fp.gt (fp.mul RNE x8 x9) (fp.sub RNE x13 x15)))
(assert (fp.geq (fp.neg x15) (fp.mul RNE x15 x5)))
(assert (fp.gt (fp.mul RNE x15 x14) (fp.mul RNE x8 x9)))
(assert (fp.geq (fp.neg x5) (fp.neg x15)))
(check-sat)
