db/data/7569102972498022499288731162148992877.z3.out
-------------------
2500.164781547
